# Solution for model FSG
# Objective value = 8.9511920000000009e+03
x_0_1 0
x_0_2 0
x_0_3 0
x_0_4 0
x_0_5 0
x_0_6 1
x_0_7 0
x_0_8 0
x_0_9 1
x_0_10 1
x_1_2 0
x_1_3 0
x_1_4 0
x_1_5 0
x_1_6 0
x_1_7 0
x_1_8 1
x_1_9 0
x_1_10 0
x_2_1 1
x_2_3 0
x_2_4 0
x_2_5 0
x_2_6 0
x_2_7 0
x_2_8 0
x_2_9 0
x_2_10 0
x_3_1 0
x_3_2 0
x_3_4 0
x_3_5 1
x_3_6 0
x_3_7 0
x_3_8 0
x_3_9 0
x_3_10 0
x_4_1 0
x_4_2 0
x_4_3 0
x_4_5 0
x_4_6 0
x_4_7 1
x_4_8 0
x_4_9 0
x_4_10 0
x_5_1 0
x_5_2 0
x_5_3 0
x_5_4 1
x_5_6 0
x_5_7 0
x_5_8 0
x_5_9 0
x_5_10 0
x_6_1 0
x_6_2 0
x_6_3 1
x_6_4 0
x_6_5 0
x_6_7 0
x_6_8 0
x_6_9 0
x_6_10 0
x_7_1 0
x_7_2 1
x_7_3 0
x_7_4 0
x_7_5 0
x_7_6 0
x_7_8 0
x_7_9 0
x_7_10 0
U_1_1 0
U_1_2 0
U_1_3 0
U_1_4 1
U_2_1 0
U_2_2 0
U_2_3 0
U_2_4 1
U_3_1 0
U_3_2 0
U_3_3 1
U_3_4 0
U_4_1 0
U_4_2 0
U_4_3 1
U_4_4 0
U_5_1 0
U_5_2 0
U_5_3 1
U_5_4 0
U_6_1 0
U_6_2 0
U_6_3 1
U_6_4 0
U_7_1 0
U_7_2 0
U_7_3 0
U_7_4 1
U_8_1 0
U_8_2 0
U_8_3 0
U_8_4 1
U_9_1 0
U_9_2 0
U_9_3 0
U_9_4 1
U_10_1 0
U_10_2 0
U_10_3 0
U_10_4 1
TBar_0 0
TBar_1 1.3336864219999927e+03
TBar_2 1.2724423019999929e+03
TBar_3 1.0224322479999972e+03
TBar_4 1.1491782119999950e+03
TBar_5 1.0861202879999967e+03
TBar_6 960
TBar_7 1.2103516599999928e+03
TBar_8 1440
TBar_9 1440
TBar_10 1440
y_0_1_1 0
y_0_2_1 0
y_0_3_1 0
y_0_4_1 0
y_0_5_1 0
y_0_6_1 0
y_0_7_1 0
y_0_8_1 0
y_0_9_1 0
y_0_10_1 0
y_1_2_1 0
y_1_3_1 0
y_1_4_1 0
y_1_5_1 0
y_1_6_1 0
y_1_7_1 0
y_1_8_1 0
y_1_9_1 0
y_1_10_1 0
y_2_1_1 0
y_2_3_1 0
y_2_4_1 0
y_2_5_1 0
y_2_6_1 0
y_2_7_1 0
y_2_8_1 0
y_2_9_1 0
y_2_10_1 0
y_3_1_1 0
y_3_2_1 0
y_3_4_1 0
y_3_5_1 0
y_3_6_1 0
y_3_7_1 0
y_3_8_1 0
y_3_9_1 0
y_3_10_1 0
y_4_1_1 0
y_4_2_1 0
y_4_3_1 0
y_4_5_1 0
y_4_6_1 0
y_4_7_1 0
y_4_8_1 0
y_4_9_1 0
y_4_10_1 0
y_5_1_1 0
y_5_2_1 0
y_5_3_1 0
y_5_4_1 0
y_5_6_1 0
y_5_7_1 0
y_5_8_1 0
y_5_9_1 0
y_5_10_1 0
y_6_1_1 0
y_6_2_1 0
y_6_3_1 0
y_6_4_1 0
y_6_5_1 0
y_6_7_1 0
y_6_8_1 0
y_6_9_1 0
y_6_10_1 0
y_7_1_1 0
y_7_2_1 0
y_7_3_1 0
y_7_4_1 0
y_7_5_1 0
y_7_6_1 0
y_7_8_1 0
y_7_9_1 0
y_7_10_1 0
Q_0_1 0
Q_1_1 2.5208000000010171e+02
Q_2_1 2.1272000000010155e+02
Q_3_1 5.7760000000074790e+01
Q_4_1 1.1796000000009741e+02
Q_5_1 8.8760000000075010e+01
Q_6_1 2.8040000000030730e+01
Q_7_1 1.7288000000010163e+02
Q_8_1 2.5208000000011410e+02
Q_9_1 0
Q_10_1 0
R_8_1 0
R_9_1 0
R_10_1 0
L_1_1 0
L_2_1 0
L_3_1 10.84
L_4_1 1.0879999999999999e+01
L_5_1 10.08
L_6_1 9.4400000000000013e+00
L_7_1 0
rho_1_1 0
rho_2_1 0
rho_3_1 0
rho_4_1 0
rho_5_1 0
rho_6_1 0
rho_7_1 0
lambd_1_1 0
lambd_2_1 0
lambd_3_1 0
lambd_4_1 0
lambd_5_1 0
lambd_6_1 0
lambd_7_1 0
alpha_1_1 0
alpha_2_1 0
alpha_3_1 0
alpha_4_1 0
alpha_5_1 0
alpha_6_1 0
alpha_7_1 0
